c FILE: i160-135

c SOURCE: From steinlib

c DESCRIPTION: Steinlib instance with 160 nodes and 320 edges.

p edge 160 320
e 1 37
e 1 47
e 1 66
e 1 77
e 1 89
e 1 101
e 1 111
e 2 25
e 2 99
e 2 158
e 3 31
e 4 38
e 4 69
e 4 82
e 5 8
e 5 32
e 5 94
e 6 53
e 6 87
e 6 157
e 7 69
e 7 70
e 7 74
e 7 123
e 7 143
e 7 155
e 8 107
e 8 137
e 9 20
e 9 96
e 9 129
e 10 63
e 10 145
e 11 127
e 12 80
e 12 107
e 12 142
e 12 149
e 13 27
e 13 30
e 13 38
e 13 70
e 13 82
e 13 105
e 14 44
e 14 65
e 14 78
e 14 152
e 15 49
e 15 61
e 15 83
e 15 85
e 15 129
e 16 76
e 16 143
e 16 154
e 17 23
e 17 36
e 17 72
e 17 118
e 18 58
e 18 87
e 18 142
e 19 59
e 19 137
e 20 78
e 20 114
e 21 62
e 21 101
e 21 123
e 22 148
e 22 160
e 23 35
e 23 61
e 23 71
e 24 49
e 24 99
e 25 102
e 25 145
e 26 29
e 26 56
e 26 116
e 27 82
e 27 96
e 27 112
e 27 130
e 27 143
e 27 152
e 27 154
e 28 51
e 28 56
e 28 160
e 29 96
e 29 114
e 29 127
e 29 144
e 30 73
e 30 111
e 30 152
e 31 61
e 31 124
e 31 149
e 32 39
e 32 87
e 32 92
e 32 101
e 33 87
e 34 59
e 34 79
e 34 91
e 34 113
e 34 115
e 35 104
e 36 128
e 37 59
e 37 98
e 37 119
e 38 68
e 38 128
e 39 47
e 39 48
e 39 74
e 39 107
e 39 117
e 39 154
e 40 66
e 40 69
e 41 58
e 41 83
e 41 94
e 41 146
e 41 150
e 42 80
e 42 88
e 42 130
e 42 132
e 43 98
e 44 66
e 45 71
e 45 76
e 45 117
e 45 126
e 46 100
e 46 102
e 46 122
e 47 117
e 47 125
e 47 142
e 48 66
e 48 71
e 48 86
e 48 122
e 49 84
e 49 88
e 49 109
e 50 55
e 50 92
e 51 77
e 51 81
e 51 127
e 51 141
e 52 83
e 52 114
e 53 56
e 53 159
e 54 66
e 54 93
e 54 120
e 54 154
e 55 58
e 55 107
e 55 133
e 56 157
e 57 120
e 57 154
e 58 99
e 58 113
e 58 116
e 58 158
e 59 74
e 59 88
e 59 119
e 60 67
e 60 71
e 60 92
e 61 87
e 61 128
e 62 111
e 62 134
e 62 153
e 63 79
e 63 85
e 63 106
e 64 121
e 64 132
e 64 136
e 64 153
e 65 100
e 65 111
e 65 123
e 65 153
e 66 107
e 66 110
e 66 136
e 67 96
e 67 119
e 68 81
e 68 148
e 68 156
e 69 84
e 69 98
e 69 115
e 70 73
e 70 119
e 70 128
e 72 120
e 73 138
e 73 151
e 74 104
e 75 106
e 75 114
e 75 129
e 75 137
e 76 115
e 76 120
e 76 123
e 77 87
e 77 103
e 77 147
e 77 158
e 78 80
e 78 85
e 78 103
e 78 149
e 80 133
e 81 93
e 81 129
e 81 131
e 81 143
e 81 145
e 81 155
e 82 141
e 83 144
e 84 106
e 84 120
e 86 95
e 86 122
e 87 153
e 87 160
e 88 115
e 89 98
e 89 139
e 90 110
e 90 123
e 90 128
e 91 137
e 92 111
e 92 157
e 94 108
e 94 109
e 94 152
e 95 97
e 95 111
e 95 113
e 95 137
e 96 100
e 96 132
e 96 133
e 98 105
e 99 112
e 100 128
e 101 141
e 102 123
e 102 153
e 103 149
e 104 134
e 105 108
e 105 130
e 106 143
e 107 127
e 107 151
e 108 134
e 111 151
e 112 128
e 112 157
e 113 129
e 113 132
e 113 148
e 114 125
e 116 136
e 117 124
e 117 141
e 117 148
e 119 136
e 119 146
e 120 127
e 120 133
e 121 133
e 122 126
e 122 133
e 122 147
e 124 145
e 124 152
e 125 135
e 125 136
e 125 138
e 125 149
e 127 131
e 127 132
e 127 133
e 132 158
e 133 143
e 136 158
e 138 142
e 140 154
e 141 144
e 142 151
e 147 150
e 148 155
e 153 156
